c Result of efficient AIG-to-CNF conversion using package CNF
p cnf 139 205
-2 3 23 27 30 0
2 -30 0
2 -3 0
2 -27 0
2 -23 0
-3 -4 15 18 0
-3 15 17 18 0
3 -18 0
3 -15 0
3 4 -17 0
-4 97 5 0
-4 129 5 0
4 -5 0
4 -97 -129 0
5 -98 -6 -14 0
5 -98 -130 -14 0
5 -130 -6 -14 0
-5 98 6 0
-5 130 6 0
-5 14 0
-5 98 130 0
6 -99 -131 0
6 -131 -7 0
6 -99 -7 0
-6 99 7 0
-6 131 7 0
-6 99 131 0
7 -100 -132 0
7 -132 -8 0
7 -100 -8 0
-7 132 8 0
-7 100 132 0
-7 100 8 0
-8 101 9 0
-8 133 9 0
8 -9 0
8 -101 -133 0
9 -102 -134 -13 0
9 -102 -10 -13 0
9 -134 -10 -13 0
-9 134 10 0
-9 102 134 0
-9 13 0
-9 102 10 0
-10 135 11 0
-10 103 135 0
-10 103 11 0
10 -103 -135 0
10 -135 -11 0
10 -103 -11 0
-11 104 12 0
-11 136 12 0
-11 104 136 0
11 -104 -136 0
11 -136 -12 0
11 -104 -12 0
12 -105 -137 0
12 -105 -106 -138 0
12 -106 -137 -138 0
-12 137 138 0
-12 105 106 0
-12 105 137 0
-12 106 137 0
-12 105 138 0
-13 101 133 0
13 -101 0
13 -133 0
-14 97 129 0
14 -97 0
14 -129 0
15 -94 95 16 0
15 -94 95 127 0
15 -94 127 16 0
-15 -95 -127 0
-15 -95 -16 0
-15 94 0
-15 -127 -16 0
16 -96 -128 0
16 -128 -4 0
16 -96 -4 0
-16 128 4 0
-16 96 128 0
-16 96 4 0
-17 95 96 0
17 -95 0
17 -96 0
-18 8 19 0
-18 -99 -100 19 0
18 -19 0
18 99 -8 0
18 100 -8 0
-19 4 20 0
-19 -95 -96 20 0
19 -20 0
19 95 -4 0
19 96 -4 0
-20 -6 21 0
-20 97 98 21 0
20 -21 0
20 -98 6 0
20 -97 6 0
-21 12 22 0
-21 -103 -104 22 0
21 -22 0
21 104 -12 0
21 103 -12 0
-22 86 89 90 0
22 -86 0
22 -90 0
22 -89 0
-23 51 52 24 26 0
23 -51 0
23 -26 0
23 -24 0
23 -52 0
-24 75 76 25 0
24 -25 0
24 -76 0
24 -75 0
-25 43 44 49 50 0
25 -50 0
25 -49 0
25 -43 0
25 -44 0
-26 45 46 47 48 0
26 -48 0
26 -47 0
26 -45 0
26 -46 0
-27 103 104 28 29 0
27 -103 0
27 -29 0
27 -28 0
27 -104 0
-28 87 88 95 96 0
28 -96 0
28 -95 0
28 -87 0
28 -88 0
-29 83 84 97 98 0
29 -98 0
29 -97 0
29 -83 0
29 -84 0
-30 31 35 40 41 0
30 -41 0
30 -31 0
30 -40 0
30 -35 0
-31 94 105 32 33 0
31 -94 0
31 -33 0
31 -32 0
31 -105 0
-32 93 99 100 101 0
32 -101 0
32 -100 0
32 -93 0
32 -99 0
-33 59 85 106 34 0
33 -34 0
33 -106 0
33 -59 0
33 -85 0
-34 53 60 0
34 -53 0
34 -60 0
-35 65 66 36 39 0
35 -65 0
35 -39 0
35 -36 0
35 -66 0
-36 57 58 37 38 0
36 -57 0
36 -38 0
36 -37 0
36 -58 0
-37 63 64 0
37 -63 0
37 -64 0
-38 61 62 79 80 0
38 -80 0
38 -79 0
38 -61 0
38 -62 0
-39 54 55 56 0
39 -54 0
39 -56 0
39 -55 0
-40 77 78 81 82 0
40 -82 0
40 -81 0
40 -77 0
40 -78 0
-41 -12 42 0
-41 103 104 42 0
41 -42 0
41 -104 12 0
41 -103 12 0
-42 91 92 102 0
42 -91 0
42 -102 0
42 -92 0
-139 0
-2 0

